NAME : tsp_400_sol.txt
COMMENT : OR-Tools Guided Local Search
TYPE : TOUR
DIMENSION : 125
COST : 8884
STATUS : ROUTING_SUCCESS
GAP : 0.00% (Reference Solution)
TOUR_SECTION
1
90
27
15
72
49
104
6
92
47
8
68
74
45
37
52
105
54
77
73
60
109
112
116
103
28
36
12
32
4
91
94
88
96
65
66
44
115
70
89
93
3
101
16
111
100
69
42
39
82
21
97
23
107
35
83
80
86
43
71
2
114
61
120
5
64
62
19
84
41
118
98
117
14
29
76
58
10
34
31
53
67
56
9
108
102
95
63
33
78
17
124
51
30
119
57
26
50
87
20
113
18
85
99
38
24
46
125
121
55
106
25
122
22
7
79
110
75
81
40
48
13
59
123
11
-1
